SCIP Status        : solving was interrupted [time limit reached]
Total Time         :    3600.00
  solving          :    3600.00
  presolving       :       0.19 (included in solving)
  reading          :       0.00
  copying          :       2.91 (53 #copies) (minimal 0.00, maximal 0.21, average 0.05)
Original Problem   :
  Problem name     : bbbenchmark/g05_100.0.cut
  Variables        : 101 (100 binary, 0 integer, 0 implicit integer, 1 continuous)
  Constraints      : 1 initial, 1 maximal
  Objective        : minimize, 1 non-zeros (abs.min = 1, abs.max = 1)
Presolved Problem  :
  Problem name     : t_bbbenchmark/g05_100.0.cut
  Variables        : 1806 (100 binary, 0 integer, 1690 implicit integer, 16 continuous)
  Constraints      : 1736 initial, 11746 maximal
  Objective        : minimize, 1 non-zeros (abs.min = 1, abs.max = 1)
  Nonzeros         : 8521 constraint, 202 clique table
Presolvers         :   ExecTime  SetupTime  Calls  FixedVars   AggrVars   ChgTypes  ChgBounds   AddHoles    DelCons    AddCons   ChgSides   ChgCoefs
  boundshift       :       0.00       0.00      0          0          0          0          0          0          0          0          0          0
  convertinttobin  :       0.00       0.00      0          0          0          0          0          0          0          0          0          0
  domcol           :       0.00       0.00      1          0          0          0          0          0          0          0          0          0
  dualagg          :       0.00       0.00      0          0          0          0          0          0          0          0          0          0
  dualcomp         :       0.00       0.00      1          0          0          0          0          0          0          0          0          0
  dualinfer        :       0.00       0.00      0          0          0          0          0          0          0          0          0          0
  dualsparsify     :       0.00       0.00      1          0          0          0          0          0          0          0          0          0
  gateextraction   :       0.00       0.00      0          0          0          0          0          0          0          0          0          0
  implics          :       0.00       0.00      2          0          0          0          0          0          0          0          0          0
  inttobinary      :       0.00       0.00      0          0          0          0          0          0          0          0          0          0
  qpkktref         :       0.00       0.00      0          0          0          0          0          0          0          0          0          0
  redvub           :       0.00       0.00      0          0          0          0          0          0          0          0          0          0
  sparsify         :       0.00       0.00      1          0          0          0          0          0          0          0          0          0
  stuffing         :       0.00       0.00      0          0          0          0          0          0          0          0          0          0
  trivial          :       0.00       0.00      4          0          0          0          0          0          0          0          0          0
  tworowbnd        :       0.00       0.00      0          0          0          0          0          0          0          0          0          0
  dualfix          :       0.00       0.00      4          0          0          0          0          0          0          0          0          0
  genvbounds       :       0.00       0.00      0          0          0          0          0          0          0          0          0          0
  probing          :       0.13       0.00      1          0          0          0          0          0          0          0          0          0
  pseudoobj        :       0.00       0.00      1          0          0          0          1          0          0          0          0          0
  symmetry         :       0.00       0.00      0          0          0          0          0          0          0          0          0          0
  vbounds          :       0.00       0.00      1          0          0          0          0          0          0          0          0          0
  varbound         :       0.00       0.00      2          0          0          0          0          0          0          0          0          0
  and              :       0.00       0.00      2          0          0          0          0          0          0          0          0          0
  linear           :       0.00       0.00      2          0          0          0          0          0          0          0          0          0
  logicor          :       0.00       0.00      0          0          0          0          0          0          0          0          0          0
  bounddisjunction :       0.00       0.00      0          0          0          0          0          0          0          0          0          0
  nonlinear        :       0.05       0.00      5          0          0          0          1          0          0       1735          0          0
  benders          :       0.00       0.00      0          0          0          0          0          0          0          0          0          0
  components       :       0.00       0.00      1          0          0          0          0          0          0          0          0          0
  root node        :          -          -      -          0          -          -         15          -          -          -          -          -
Constraints        :     Number  MaxNumber  #Separate #Propagate    #EnfoLP    #EnfoRelax  #EnfoPS    #Check   #ResProp    Cutoffs    DomReds       Cuts    Applied      Conss   Children
  benderslp        :          0          0          0          0     146498          0          0      11675          0          0          0          0          0          0          0
  integral         :          0          0          0          0     146498          0          0      11675          0          0       2036          0          0       1005     291308
  varbound         :         15         15         57     863497          0          0          0        240          0          0      87345          0          0          0          0
  and              :       1690       1690     171654     944228          1          0          0        240     665995          3    2054378       4419       4356          0          0
  linear           :         31+        63         57     944260          1          0          0        238       1055          7     552511          0          0          0          0
  logicor          :          0+      9797          0     139826          0          0          0          0        123        550         91          0          0          0          0
  bounddisjunction :          0+       686          0      64516          0          0          0          0          2         40          3          0          0          0          0
  benders          :          0          0          0          0          1          0          0         29          0          0          0          0          0          0          0
  countsols        :          0          0          0          0          1          0          0         29          0          0          0          0          0          0          0
  components       :          0          0          0          0          0          0          0          0          0          0          0          0          0          0          0
Constraint Timings :  TotalTime  SetupTime   Separate  Propagate     EnfoLP     EnfoPS     EnfoRelax   Check    ResProp    SB-Prop
  benderslp        :       0.17       0.00       0.00       0.00       0.14       0.00       0.00       0.03       0.00       0.00
  integral         :      68.12       0.00       0.00       0.00      68.09       0.00       0.00       0.03       0.00       0.00
  varbound         :       1.27       0.00       0.00       1.27       0.00       0.00       0.00       0.00       0.00       0.00
  and              :     150.61       0.00     103.04      46.41       0.00       0.00       0.00       0.08       0.48       0.60
  linear           :       6.67       0.00       0.01       6.59       0.00       0.00       0.00       0.01       0.00       0.06
  logicor          :      18.65       0.00       0.00      18.63       0.00       0.00       0.00       0.00       0.00       0.02
  bounddisjunction :       1.89       0.00       0.00       1.88       0.00       0.00       0.00       0.00       0.00       0.01
  benders          :       0.00       0.00       0.00       0.00       0.00       0.00       0.00       0.00       0.00       0.00
  countsols        :       0.00       0.00       0.00       0.00       0.00       0.00       0.00       0.00       0.00       0.00
  components       :       0.25       0.00       0.00       0.25       0.00       0.00       0.00       0.00       0.00       0.00
Propagators        : #Propagate   #ResProp    Cutoffs    DomReds
  dualfix          :          4          0          0          0
  genvbounds       :          0          0          0          0
  nlobbt           :          0          0          0          0
  obbt             :          0          0          0          0
  probing          :          0          0          0          0
  pseudoobj        :     635592          7          0        794
  redcost          :     337584          0          0     226480
  rootredcost      :         16          0          0          0
  symmetry         :          0          0          0          0
  vbounds          :     161078          0          0          0
Propagator Timings :  TotalTime  SetupTime   Presolve  Propagate    ResProp    SB-Prop
  dualfix          :       0.00       0.00       0.00       0.00       0.00       0.00
  genvbounds       :       0.63       0.00       0.00       0.63       0.00       0.00
  nlobbt           :       0.00       0.00       0.00       0.00       0.00       0.00
  obbt             :       0.00       0.00       0.00       0.00       0.00       0.00
  probing          :       0.13       0.00       0.13       0.00       0.00       0.00
  pseudoobj        :       1.15       0.00       0.00       1.14       0.00       0.01
  redcost          :      21.72       0.00       0.00      21.72       0.00       0.00
  rootredcost      :       0.86       0.00       0.00       0.86       0.00       0.00
  symmetry         :       0.44       0.00       0.00       0.44       0.00       0.00
  vbounds          :       0.74       0.00       0.00       0.73       0.00       0.01
Conflict Analysis  :       Time      Calls    Success    DomReds  Conflicts   Literals    Reconvs ReconvLits   Dualrays   Nonzeros   LP Iters   (pool size: [10000,10000])
  propagation      :       0.00        595        427          -        526       64.9          0        0.0          -          -          -
  infeasible LP    :       0.08         60         60          -       2177      152.6          0        0.0        186      117.9          0
  bound exceed. LP :      30.66       9145       8275          -     197642      106.4          0        0.0          0        0.0      74053
  strong branching :       0.00          0          0          -          0        0.0          0        0.0          -          -          0
  pseudo solution  :       0.00          0          0          -          0        0.0          0        0.0          -          -          -
  applied globally :       1.19          -          -          0      44269      115.5          -          -        186          -          -
  applied locally  :          -          -          -          0          0        0.0          -          -          0          -          -
Separators         :   ExecTime  SetupTime      Calls  RootCalls    Cutoffs    DomReds  FoundCuts ViaPoolAdd  DirectAdd    Applied ViaPoolApp  DirectApp      Conss
  cut pool         :       4.05          -      32202         82          -          -      38134    1236531          -          -          -          -          -    (maximal pool size:       3975)
  aggregation      :       7.70       0.00       5409         57          0          0        156        608          0        125        125          0          0
  > cmir           :          -          -          -          -          -          -          -        608          0        125        125          0          -
  > flowcover      :          -          -          -          -          -          -          -          0          0          0          0          0          -
  > knapsackcover  :          -          -          -          -          -          -          -          0          0          0          0          0          -
  cgmip            :       0.00       0.00          0          0          0          0          0          0          0          0          0          0          0
  clique           :       0.00       0.00         57         57          0          0          0          0          0          0          0          0          0
  closecuts        :       0.00       0.00          0          0          0          0          0          0          0          0          0          0          0
  convexproj       :       0.00       0.00          0          0          0          0          0          0          0          0          0          0          0
  disjunctive      :       0.00       0.00          0          0          0          0          0          0          0          0          0          0          0
  eccuts           :       0.00       0.00          0          0          0          0          0          0          0          0          0          0          0
  gauge            :       0.00       0.00          0          0          0          0          0          0          0          0          0          0          0
  gomory           :       0.00       0.00          0          0          0          0          0          0          0          0          0          0          0
  > gomorymi       :          -          -          -          -          -          -          -          0          0          0          0          0          -
  > strongcg       :          -          -          -          -          -          -          -          0          0          0          0          0          -
  impliedbounds    :       0.32       0.00       5409         57          0          0          1          0          0          0          0          0          0
  interlattice     :       0.06       0.00         30         30          0          0         30          0         30         30          0         30          0
  interminor       :       0.00       0.00          0          0          0          0          0          0          0          0          0          0          0
  intersub         :       0.00       0.00          0          0          0          0          0          0          0          0          0          0          0
  intobj           :       0.00       0.00          0          0          0          0          0          0          0          0          0          0          0
  mcf              :       0.00       0.00          1          1          0          0          0          0          0          0          0          0          0
  minor            :       0.02       0.00          0          0          0          0          0          0          0          0          0          0          0
  mixing           :       0.02       0.00       5409         57          0          0          0          0          0          0          0          0          0
  oddcycle         :       0.00       0.00          0          0          0          0          0          0          0          0          0          0          0
  rapidlearning    :       0.01       0.00          0          0          0          0          0          0          0          0          0          0          0
  rlt              :       0.00       0.00         10         10          0          0          0          0          0          0          0          0          0
  zerohalf         :      26.82       0.00       4615         20          0          0      37977    1235923          0     175909     175909          0          0
Cutselectors       :   ExecTime  SetupTime      Calls  RootCalls   Selected     Forced   Filtered  RootSelec   RootForc   RootFilt 
  hybrid           :       0.89       0.00      18704         55     180420          0    1060560        213          0          9
Pricers            :   ExecTime  SetupTime      Calls       Vars
  problem variables:       0.00          -          0          0
Branching Rules    :   ExecTime  SetupTime   BranchLP  BranchExt   BranchPS    Cutoffs    DomReds       Cuts      Conss   Children
  allfullstrong    :       0.00       0.00          0          0          0          0          0          0          0          0
  cloud            :       0.00       0.00          0          0          0          0          0          0          0          0
  distribution     :       0.00       0.00          0          0          0          0          0          0          0          0
  fullstrong       :       0.00       0.00          0          0          0          0          0          0          0          0
  inference        :       0.00       0.00          0          0          0          0          0          0          0          0
  leastinf         :       0.00       0.00          0          0          0          0          0          0          0          0
  lookahead        :       0.00       0.00          0          0          0          0          0          0          0          0
  mostinf          :       0.00       0.00          0          0          0          0          0          0          0          0
  multaggr         :       0.00       0.00          0          0          0          0          0          0          0          0
  nodereopt        :       0.00       0.00          0          0          0          0          0          0          0          0
  pscost           :       0.00       0.00          0          0          0          0          0          0          0          0
  random           :       0.00       0.00          0          0          0          0          0          0          0          0
  relpscost        :      67.52       0.00     146497          0          0          0       2036          0       1090     291308
  vanillafullstrong:       0.00       0.00          0          0          0          0          0          0          0          0
Primal Heuristics  :   ExecTime  SetupTime      Calls      Found       Best
  LP solutions     :       0.00          -          -          1          1
  relax solutions  :       0.00          -          -          0          0
  pseudo solutions :       0.00          -          -          0          0
  strong branching :       0.02          -          -          0          0
  actconsdiving    :       0.00       0.00          0          0          0
  adaptivediving   :       3.51       0.00         32          0          0
  alns             :       7.51       0.00         24          8          7
  bound            :       0.00       0.00          0          0          0
  clique           :       0.01       0.00          1          0          0
  coefdiving       :       0.00       0.00          0          0          0
  completesol      :       0.00       0.00          0          0          0
  conflictdiving   :     175.50       0.00       1490          0          0
  crossover        :       0.24       0.00          2          0          0
  dins             :       0.00       0.00          0          0          0
  distributiondivin:      84.61       0.00        401          0          0
  dps              :       0.00       0.00          0          0          0
  dualval          :       0.00       0.00          0          0          0
  farkasdiving     :       0.02       0.00          0          0          0
  feaspump         :       0.10       0.00          1          1          1
  fixandinfer      :       0.00       0.00          0          0          0
  fracdiving       :      59.76       0.00        558          0          0
  gins             :       0.19       0.00          0          0          0
  guideddiving     :      59.21       0.00        550          1          1
  indicator        :       0.22       0.00          0          0          0
  indicatordiving  :       0.00       0.00          0          0          0
  intdiving        :       0.00       0.00          0          0          0
  intshifting      :       0.47       0.00         81          0          0
  linesearchdiving :      57.45       0.00        521          1          1
  localbranching   :       0.00       0.00          0          0          0
  locks            :       0.01       0.00          1          0          0
  lpface           :       0.22       0.00          0          0          0
  mpec             :     146.75       0.00         11          5          5
  multistart       :       0.00       0.00          0          0          0
  mutation         :       0.00       0.00          0          0          0
  nlpdiving        :      27.72       0.00          3          0          0
  objpscostdiving  :      53.97       0.00         74          3          1
  octane           :       0.00       0.00          0          0          0
  ofins            :       0.09       0.00          0          0          0
  oneopt           :       0.20       0.00         21          0          0
  padm             :       0.00       0.00          0          0          0
  proximity        :       0.00       0.00          0          0          0
  pscostdiving     :      56.91       0.00        473          1          1
  randrounding     :       0.65       0.00      11642          0          0
  rens             :       0.00       0.00          0          0          0
  reoptsols        :       0.00       0.00          0          0          0
  repair           :       0.00       0.00          0          0          0
  rins             :       5.52       0.00         26          0          0
  rootsoldiving    :      32.60       0.00         38          0          0
  rounding         :       1.37       0.00       5633          0          0
  shiftandpropagate:       0.00       0.00          0          0          0
  shifting         :      45.98       0.00      11659          3          3
  simplerounding   :       0.23       0.00          0          0          0
  subnlp           :     245.35       0.00          0          0          0
  trivial          :       0.00       0.00          2          2          2
  trivialnegation  :       0.00       0.00          0          0          0
  trustregion      :       0.00       0.00          0          0          0
  trysol           :       0.21       0.00          0          0          0
  twoopt           :       0.00       0.00          0          0          0
  undercover       :       0.92       0.00          1          1          1
  vbounds          :       0.00       0.00          0          0          0
  veclendiving     :      59.07       0.00        544          0          0
  zeroobj          :       0.00       0.00          0          0          0
  zirounding       :       0.31       0.00       1000          0          0
  other solutions  :          -          -          -          0          -
Diving (single)    :      Calls      Nodes   LP Iters Backtracks  Conflicts   MinDepth   MaxDepth   AvgDepth  RoundSols  NLeafSols  MinSolDpt  MaxSolDpt  AvgSolDpt
  actconsdiving    :          0          -          -          -          -          -          -          -          -          -          -          -          -
  coefdiving       :          0          -          -          -          -          -          -          -          -          -          -          -          -
  conflictdiving   :       1490      62942    1817739       1667      92719         52         94       64.3          0          -          -          -          -
  distributiondivin:        401      14593     619188        454       7502         51         77       57.7          0          -          -          -          -
  farkasdiving     :          0          -          -          -          -          -          -          -          -          -          -          -          -
  fracdiving       :        558      43695     614593        319       5174         55        267      100.4          0          -          -          -          -
  guideddiving     :        550      43920     625529        340       9824         57        199      101.8          0          1        111        111      111.0
  indicatordiving  :          0          -          -          -          -          -          -          -          -          -          -          -          -
  linesearchdiving :        521      21477     627203        464      28586         45         93       63.2          0          1         77         77       77.0
  pscostdiving     :        473      21224     629059        497      11807         54         84       66.6          0          1         84         84       84.0
  veclendiving     :        544      22775     614968        508      36231         55         93       63.8          0          -          -          -          -
Diving (adaptive)  :      Calls      Nodes   LP Iters Backtracks  Conflicts   MinDepth   MaxDepth   AvgDepth  RoundSols  NLeafSols  MinSolDpt  MaxSolDpt  AvgSolDpt
  actconsdiving    :          2         86       2701          2         13         55         59       57.0          0          -          -          -          -
  coefdiving       :         12        551      13849          9        760         55         88       65.8          0          -          -          -          -
  conflictdiving   :          0          -          -          -          -          -          -          -          -          -          -          -          -
  distributiondivin:          0          -          -          -          -          -          -          -          -          -          -          -          -
  farkasdiving     :          0          -          -          -          -          -          -          -          -          -          -          -          -
  fracdiving       :          0          -          -          -          -          -          -          -          -          -          -          -          -
  guideddiving     :          1         77       1081          1          0        100        100      100.0          0          -          -          -          -
  indicatordiving  :          0          -          -          -          -          -          -          -          -          -          -          -          -
  linesearchdiving :          6        280       8876          6        323         56         71       65.2          0          -          -          -          -
  pscostdiving     :          3        132       3360          4         57         67         70       68.3          0          -          -          -          -
  veclendiving     :          8        397       8677          4        478         57         76       69.8          0          -          -          -          -
Neighborhoods      :      Calls  SetupTime  SolveTime SolveNodes       Sols       Best       Exp3  EpsGreedy        UCB TgtFixRate  Opt  Inf Node Stal  Sol  Usr Othr Actv
  rens             :          2       0.20       0.09         70          0          0    0.00000   -1.00000    0.47575      0.850    0    1    0    1    0    0    0    1
  rins             :          1       0.04       0.03         85          0          0    0.00000   -1.00000    0.48676      0.700    0    1    0    0    0    0    0    1
  mutation         :         10       1.18       1.01        731          3          3    0.00000   -1.00000    0.50982      0.745    2    2    0    6    0    0    0    1
  localbranching   :          1       0.03       0.04         97          0          0    0.00000   -1.00000    0.47476      0.700    0    1    0    0    0    0    0    1
  crossover        :          5       0.53       0.41        150          3          3    0.00000   -1.00000    0.52006      0.684    0    2    0    2    1    0    0    1
  proximity        :          2       0.05       3.28       4019          2          1    0.00000   -1.00000    0.50105      0.850    1    0    0    1    0    0    0    1
  zeroobjective    :          2       0.23       0.05         75          0          0    0.00000   -1.00000    0.47525      0.850    0    1    0    1    0    0    0    1
  dins             :          1       0.04       0.04         97          0          0    0.00000   -1.00000    0.47476      0.700    0    1    0    0    0    0    0    1
  trustregion      :          0       0.00       0.00          0          0          0    0.00000   -1.00000    1.00000      0.900    0    0    0    0    0    0    0    0
Expressions        :   #IntEval  IntEvalTi   #RevProp  RevPropTi    DomReds    Cutoffs  #Estimate  EstimTime  Branching  #Simplify SimplifyTi Simplified
  pow              :          0       0.00          0       0.00          0          0          0       0.00          0          0       0.00          0
  prod             :       9900       0.01          0       0.00          0          0          0       0.00          0       6640       0.00          0
  sum              :          8       0.00          2       0.00          0          0          0       0.00          0          3       0.00          2
  var              :       6227       0.00          0       0.00          0          0          0       0.00          0      15288       0.00          0
  varidx           :          0       0.00          0       0.00          0          0          0       0.00          0          0       0.00          0
LP                 :       Time      Calls Iterations  Iter/call   Iter/sec  Time-0-It Calls-0-It    ItLimit
  primal LP        :     112.22      19326          0       0.00       0.00     112.08      19326
  dual LP          :    1795.78     271217   12042838      49.09    6706.19      12.20      25879
  lex dual LP      :       0.00          0          0       0.00          -
  barrier LP       :       0.00          0          0       0.00          -       0.00          0
  resolve instable :       0.00          0          0       0.00          -
  diving/probing LP:     529.12      21943    6122178     279.00   11570.49
  strong branching :      17.92       2433     180199      74.06   10055.75          -          -        738
    (at root node) :          -         19       3519     185.21          -
  conflict analysis:      10.84       7560      74053       9.80    6831.46
NLP relaxation     :
  solve time       :      27.32 (17 calls)
  convexity        :  nonconvex (46 linear rows, 0 convex ineq., 0 nonconvex ineq., 1690 nonlinear eq. or two-sided ineq.)
NLP Solvers        :  #Problems  ProblemTi    #Solves  SolveTime      #Iter  Time/Iter      #Okay #TimeLimit #IterLimit #LObjLimit #Interrupt  #NumError #EvalError  #OutOfMem #LicenseEr #OtherTerm   #GlobOpt    #LocOpt  #Feasible #LocInfeas #GlobInfea #Unbounded   #Unknown
  ipopt            :         12      10.04         57     175.44       1559       0.11         55          0          2          0          0          0          0          0          0          0          0         42          0         11          0          0          4
B&B Tree           :
  number of runs   :          1
  nodes            :     225840 (145654 internal, 80186 leaves)
  feasible leaves  :          1
  infeas. leaves   :         26
  objective leaves :      80158
  nodes (total)    :     225840 (145654 internal, 80186 leaves)
  nodes left       :      65269
  max depth        :         74
  max depth (total):         74
  backtracks       :      48981 (21.7%)
  early backtracks :          0 (0.0%)
  nodes exc. ref.  :          0 (0.0%)
  delayed cutoffs  :          8
  repropagations   :        111 (720 domain reductions, 1 cutoffs)
  avg switch length:       6.07
  switching time   :     172.09
Estim. Tree Size   :     452080
Estimation Tree    : 291309 nodes (226040 visited, 145654 internal, 80386 leaves, 65269 open), weight: 0.0000 completed 0.1192
Estimations        :      estim      value      trend resolution     smooth
  wbe              : 1629862854532071          -          -          -          -
  tree-profile     :         -1          -          -          -          -
  gap              :    3183450    0.67552    0.00003        128    3208717
  tree-weight      :     452080    0.00000    0.00000        128     449666
  leaf-frequency   :     452080    0.35563   -0.00068        128     800799
  ssg              :    4767389    0.81176   -0.00005        128    5144772
  open-nodes       :     452080 65269.00000  514.81225        128     449666
Root Node          :
  First LP value   : -1.00000000000000e+00
  First LP Iters   :       1630 (20375.00 Iter/sec)
  First LP Time    :       0.08
  Final Dual Bound : -9.56565656565657e-01
  Final Root Iters :       2593
  Root LP Estimate : -3.63865312614061e-01
Solution           :
  Solutions found  :         27 (24 improvements)
  First Solution   : +1.00000000000000e+05   (in run 1, after 0 nodes, 0.00 seconds, depth 0, found by <trivial>)
  Gap First Sol.   :   infinite
  Gap Last Sol.    :      50.65 %
  Primal Bound     : -5.65252525252524e-01   (in run 1, after 87360 nodes, 839.29 seconds, depth 20, found by <alns>)
  Dual Bound       : -8.36764106321854e-01
  Gap              :      48.03 %
Integrals          :      Total       Avg%
  primal-dual      :  122822.41      34.12
  primal-ref       :          -          - (not evaluated)
  dual-ref         :          -          - (not evaluated)
